\ This file was automatically generated by Zimpl
\ var x1 >= 0;
\ var x2 >= 0;
\ var x3 >= 0;
\ var x4 >= 0;
\ var x5 >= 0;
\ var x6 >= 0;
\ minimize z:     1*x1 + 2*x2 - 4*x3 + 0*x4 + 0*x5 + 0*x6;
\ subto c1:     -1*x1 + 1*x2 + 2*x3 + 1*x4 + 0*x5 + 0*x6 == 6;
\ subto c2:     1*x1 + 1*x2 - 1*x3 + 0*x4 + 1*x5 + 0*x6 == 2;
\ subto c3:     -1*x1 + 1*x2 + 1*x3 + 0*x4 + 0*x5 + 1*x6 == 2;
\Problem name: pp
Minimize
 z:  + x1 +2 x2 -4 x3
Subject to
 c1_1:
  + x4 +2 x3 + x2 - x1 = 6
 c2_1:
  + x5 - x3 + x2 + x1 = 2
 c3_1:
  + x6 + x3 + x2 - x1 = 2
Bounds
 0 <= x1 <= +inf
 0 <= x2 <= +inf
 0 <= x3 <= +inf
 0 <= x4 <= +inf
 0 <= x5 <= +inf
 0 <= x6 <= +inf
End
